56757
10, 22, 23, 37, 16, 39, 36, 33, 42, 5, 35, 41, 13, 3, 6, 55, 11, 46, 44, 40, 4, 26, 19, 1, 27, 43, 47, 7, 32, 24, 20, 50, 38, 8, 18, 30, 49, 48, 17, 51, 28, 54, 34, 53, 21, 29, 9, 12, 14, 2, 45, 31, 25, 52, 15
